
<<< setup


<<< generate

 ! --------------------------------------------------- CP Optimizer 22.1.1.0 --
 ! Satisfiability problem - 100 variables, 896 constraints
 ! Presolve      : 261 extractables eliminated, 87 constraints generated
 ! ParallelMode         = 1
 ! Workers              = 8
 ! Initial process time : 0.04s (0.04s extraction + 0.00s propagation)
 !  . Log search space  : 200.0 (before), 200.0 (after)
 !  . Memory usage      : 1.1 MB (before), 1.1 MB (after)
 ! Using parallel search with 8 workers.
 ! ----------------------------------------------------------------------------
 !               Branches  Non-fixed    W       Branch decision
                     1000         21    4   F     2 != x#0#47
                     1000         25    1   F     0  = x#0#33
                     1000         40    5   F     2  = x#0#63
                     2000         29    4   F     1  = x#0#93
                     2000         23    1         3 != x#0#6
                     1000         24    3   F     0  = x#0#21
 *                   1182  0.11s        3         0  = x#0#99
 ! ----------------------------------------------------------------------------
 ! Search completed, 1 solution found.
 ! ----------------------------------------------------------------------------
 ! Number of branches     : 15537
 ! Number of fails        : 6925
 ! Total memory usage     : 19.4 MB (19.0 MB CP Optimizer + 0.5 MB Concert)
 ! Time spent in solve    : 0.13s (0.09s engine + 0.04s extraction)
 ! Search speed (br. / s) : 194212.5
 ! ----------------------------------------------------------------------------

<<< solve



OBJECTIVE: no objective
===== SCHEDULE =====
Nurse 1: 0 0 0 0 1 1 3 0 1 1 3 2 3 3 0 0 1 0 1 0 3 0 1 1 3 2 3 3 0 0 1 0 1 0 3 0 1 1 3 2 3 3 0 0 1 0 1 0 3 0 1 1 3 2 3 3 0 0 1 0 1 0 3 0 1 1 3 2 3 3 0 0 1 0 1 0 3 0 1 1 3 2 3 3 0 0 1 0 1 0 3 0 1 1 3 2 3 3 0 0 

<<< post process


<<< done

